c   #vars: 121   #clauses: 547   #literals: 1492
c 
p cnf 121 547
-1 -2 0
-3 -4 0
-5 -6 0
-7 -8 0
-9 -10 0
-11 -12 0
-13 -14 0
-15 -16 0
-17 -18 0
-19 -20 0
-21 -22 0
-23 -24 0
-25 -26 0
-27 -28 0
-29 -30 0
-31 -32 0
-33 -34 0
-28 -49 104 117 0
-35 -36 0
-37 -38 0
-39 -40 0
-41 -42 0
3 4 63 64 0
-44 -45 0
-46 -47 0
-49 -50 0
-51 -52 0
-53 -54 0
-55 -56 0
-57 -58 0
-59 -60 0
-61 -62 0
-63 -64 0
17 18 -27 43 0
5 6 87 88 0
-66 -67 0
-68 -69 0
-70 -71 0
5 6 -99 101 0
7 8 13 14 0
-72 -73 0
-74 -75 0
83 84 85 -113 0
-77 -78 0
-79 -80 0
-81 -82 0
29 30 31 32 0
79 80 96 97 0
5 6 81 82 0
57 58 113 114 0
37 38 66 67 0
77 78 86 -91 0
-84 -85 0
-33 89 90 93 0
-87 -88 0
-89 -90 0
-91 -92 0
98 -109 115 116 0
-27 43 51 52 0
5 6 48 -120 0
-94 -95 0
-96 -97 0
-99 -100 0
27 28 -104 117 0
-102 -103 0
-105 -106 0
-107 -108 0
-109 -110 0
-111 -112 0
-113 -114 0
-115 -116 0
3 4 79 80 0
-118 -119 0
7 8 31 32 0
-120 -121 0
17 18 23 24 0
-1 -15 0
-2 -16 0
-1 13 14 65 0
-1 -53 0
-2 -54 0
-2 -65 0
3 4 25 26 0
-1 -70 0
-2 -71 0
-55 83 84 85 0
-2 -76 0
3 4 13 14 0
-3 -13 0
-4 -14 0
-3 -25 0
-4 -26 0
59 60 81 82 0
27 28 48 -120 0
-84 99 100 101 0
37 38 59 60 0
-3 -55 0
-4 -56 0
13 14 15 16 0
-3 -63 0
-4 -64 0
35 36 77 78 0
-3 -70 0
-4 -71 0
37 38 91 92 0
55 56 83 -113 0
-4 -76 0
79 80 94 95 0
-3 -79 0
-4 -80 0
-5 -27 0
-6 -28 0
1 2 -3 76 0
-6 -48 0
5 6 27 28 0
-5 -63 0
-6 -64 0
27 28 102 103 0
-5 -81 0
-6 -82 0
49 50 -66 104 0
98 109 110 -115 0
-5 -87 0
-6 -88 0
27 28 -40 117 0
-6 -101 0
7 8 9 10 0
-7 -9 0
-8 -10 0
107 108 120 121 0
-7 -13 0
-8 -14 0
33 34 37 38 0
-7 -31 0
-8 -32 0
-7 -53 0
-8 -54 0
-87 98 115 116 0
-8 -93 0
-27 48 120 121 0
-7 -113 0
-8 -114 0
11 12 23 24 0
-9 -13 0
-10 -14 0
46 47 81 82 0
-9 -51 0
-10 -52 0
33 34 107 108 0
-9 -81 0
-10 -82 0
9 10 81 82 0
-9 -91 0
-10 -92 0
5 6 63 64 0
-9 -94 0
-10 -95 0
31 32 87 88 0
-11 -23 0
-12 -24 0
15 16 68 69 0
-11 -44 0
-12 -45 0
1 2 15 16 0
-11 -49 0
-12 -50 0
15 16 61 62 0
-11 -63 0
-12 -64 0
15 16 53 54 0
-11 -94 0
-12 -95 0
-11 -102 0
-12 -103 0
11 12 49 50 0
-13 -15 0
-14 -16 0
-14 -65 0
109 110 111 112 0
-13 -87 0
-14 -88 0
72 73 105 106 0
-13 -99 0
-14 -100 0
72 73 120 121 0
-13 -115 0
-14 -116 0
49 50 120 121 0
-15 -29 0
-16 -30 0
13 14 87 88 0
-15 -53 0
-16 -54 0
-13 51 52 65 0
-15 -61 0
-16 -62 0
55 56 72 73 0
-15 -68 0
-16 -69 0
27 28 118 119 0
102 103 107 108 0
-17 -23 0
-18 -24 0
57 58 105 106 0
-18 -43 0
68 69 89 90 0
-17 -107 0
-18 -108 0
11 12 63 64 0
-17 -111 0
-18 -112 0
-19 -31 0
-20 -32 0
-19 -39 0
-20 -40 0
13 14 99 100 0
-19 -59 0
-20 -60 0
44 45 91 92 0
-19 -94 0
-20 -95 0
31 32 118 119 0
-21 -39 0
-22 -40 0
-21 -46 0
-22 -47 0
44 45 94 95 0
-21 -61 0
-22 -62 0
13 14 115 116 0
-21 -81 0
-22 -82 0
19 20 31 32 0
-23 -59 0
-24 -60 0
-55 83 113 114 0
-23 -81 0
-24 -82 0
41 42 79 80 0
-23 -118 0
-24 -119 0
23 24 118 119 0
-25 -61 0
-26 -62 0
-25 -72 0
-26 -73 0
-25 -107 0
-26 -108 0
-5 84 85 101 0
-28 -43 0
51 52 96 97 0
-28 -48 0
23 24 59 60 0
-27 -55 0
-28 -56 0
84 85 109 110 0
-27 -102 0
-28 -103 0
-27 -117 0
29 30 91 92 0
-27 -118 0
-28 -119 0
-29 -31 0
-30 -32 0
77 78 79 80 0
-29 -63 0
-30 -64 0
99 100 111 112 0
-29 -74 0
-30 -75 0
84 85 115 116 0
-29 -77 0
-30 -78 0
11 12 102 103 0
-29 -91 0
-30 -92 0
-5 48 120 121 0
-29 -96 0
-30 -97 0
29 30 96 97 0
-31 -87 0
-32 -88 0
23 24 81 82 0
-31 -118 0
-32 -119 0
33 34 35 36 0
-33 -35 0
-34 -36 0
53 54 118 119 0
-33 -37 0
-34 -38 0
87 88 98 -115 0
-34 -93 0
63 64 105 106 0
-33 -107 0
-34 -108 0
1 2 -51 65 0
44 45 102 103 0
1 2 -13 65 0
21 22 39 40 0
-35 -61 0
-36 -62 0
19 20 39 40 0
-35 -77 0
-36 -78 0
-35 -115 0
-36 -116 0
44 45 66 67 0
-37 -59 0
-38 -60 0
-37 -66 0
-38 -67 0
9 10 94 95 0
-37 -91 0
-38 -92 0
19 20 94 95 0
-37 -105 0
-38 -106 0
55 56 83 -84 0
-40 -76 0
74 75 118 119 0
-39 -117 0
21 22 46 47 0
-41 -49 0
-42 -50 0
5 6 -27 48 0
-41 -66 0
-42 -67 0
-40 -66 104 117 0
-41 -79 0
-42 -80 0
5 6 -84 101 0
-41 -84 0
-42 -85 0
-41 -120 0
-42 -121 0
9 10 13 14 0
84 85 -99 101 0
-43 -52 0
51 52 66 67 0
-44 -51 0
-45 -52 0
46 47 70 71 0
-44 -66 0
-45 -67 0
63 64 118 119 0
-44 -81 0
-45 -82 0
77 78 91 92 0
-44 -84 0
-45 -85 0
96 97 102 103 0
-44 -91 0
-45 -92 0
-44 -94 0
-45 -95 0
77 78 109 110 0
-44 -102 0
-45 -103 0
-46 -49 0
-47 -50 0
55 56 57 58 0
-46 -70 0
-47 -71 0
-46 -81 0
-47 -82 0
27 28 55 56 0
49 50 104 -117 0
15 16 29 30 0
-5 27 28 48 0
-5 99 100 101 0
-48 -121 0
9 10 51 52 0
-1 3 4 76 0
-50 -104 0
7 8 53 54 0
-49 -120 0
-50 -121 0
1 2 -39 76 0
3 4 -99 -100 0
-52 -65 0
41 42 66 67 0
-51 -66 0
-52 -67 0
-51 -96 0
-52 -97 0
44 45 84 85 0
-53 -118 0
-54 -119 0
35 36 61 62 0
-55 -57 0
-56 -58 0
19 20 59 60 0
-55 -72 0
-56 -73 0
89 90 102 103 0
-74 77 78 86 0
-56 -83 0
25 26 61 62 0
-57 -74 0
-58 -75 0
21 22 61 62 0
-57 -105 0
-58 -106 0
41 42 49 50 0
-57 -113 0
-58 -114 0
59 60 68 69 0
-59 -68 0
-60 -69 0
68 69 111 112 0
-59 -81 0
-60 -82 0
17 18 43 -51 0
-3 39 40 76 0
-17 43 51 52 0
7 8 113 114 0
-63 -105 0
-64 -106 0
3 4 70 71 0
-63 -118 0
-64 -119 0
3 4 -39 76 0
3 4 55 56 0
-3 -4 99 100 0
-1 39 40 76 0
35 36 115 116 0
99 100 115 116 0
-49 66 67 104 0
1 2 70 71 0
-66 -94 0
-67 -95 0
17 18 111 112 0
-67 -104 0
25 26 72 73 0
-68 -74 0
-69 -75 0
-68 -89 0
-69 -90 0
1 2 53 54 0
-68 -111 0
-69 -112 0
7 8 -89 93 0
-70 -79 0
-71 -80 0
11 12 94 95 0
-70 -89 0
-71 -90 0
-70 -94 0
-71 -95 0
68 69 74 75 0
-72 -105 0
-73 -106 0
57 58 74 75 0
-72 -109 0
-73 -110 0
-72 -120 0
-73 -121 0
70 71 79 80 0
-7 89 90 93 0
-75 -86 0
-28 -66 104 117 0
-74 -118 0
-75 -119 0
41 42 84 85 0
-77 -79 0
-78 -80 0
11 12 44 45 0
33 34 -89 93 0
-78 -86 0
-40 -49 104 117 0
-77 -91 0
-78 -92 0
-77 86 91 92 0
-77 -109 0
-78 -110 0
70 71 94 95 0
-79 -81 0
-80 -82 0
66 67 94 95 0
-79 -94 0
-80 -95 0
7 8 -33 93 0
-79 -96 0
-80 -97 0
44 45 81 82 0
29 30 77 78 0
29 30 63 64 0
79 80 81 82 0
17 18 107 108 0
27 28 43 -51 0
-1 51 52 65 0
74 75 86 -91 0
-83 -85 0
74 75 -77 86 0
-83 -114 0
-17 27 28 43 0
39 40 -104 117 0
-85 -101 0
9 10 91 92 0
-84 -109 0
-85 -110 0
41 42 120 121 0
-84 -115 0
-85 -116 0
13 14 -51 65 0
-7 33 34 93 0
-86 -92 0
-74 86 91 92 0
-88 -98 0
87 88 98 -109 0
-90 -93 0
25 26 107 108 0
-89 -102 0
-90 -103 0
21 22 81 82 0
-96 -102 0
-97 -103 0
46 47 49 50 0
-98 -110 0
29 30 74 75 0
-98 -116 0
70 71 89 90 0
-28 39 40 117 0
-100 -101 0
83 -84 113 114 0
-99 -111 0
-100 -112 0
37 38 105 106 0
-99 -115 0
-100 -116 0
72 73 109 110 0
-102 -107 0
-103 -108 0
44 45 51 52 0
107 108 118 119 0
-107 -118 0
-108 -119 0
-87 98 109 110 0
-107 -120 0
-108 -121 0
66 67 104 -117 0
-109 -111 0
-110 -112 0
109 110 113 114 0
-109 -113 0
-110 -114 0
